
Gurobi 10.0.0 (win64, gurobi_cl) logging started Wed Oct 23 11:46:51 2024

Set parameter LogFile to value "gurobi.log"

Gurobi 10.0.0 (win64, gurobi_cl) logging started Wed Oct 23 11:48:12 2024

Set parameter LogFile to value "gurobi.log"

Gurobi 10.0.0 (win64, gurobi_cl) logging started Wed Oct 23 11:51:39 2024

Set parameter LogFile to value "gurobi.log"

Gurobi 10.0.0 (win64, gurobi_cl) logging started Wed Oct 23 12:00:42 2024

Set parameter LogFile to value "gurobi.log"

Gurobi 10.0.0 (win64, gurobi_cl) logging started Mon Dec 16 12:40:34 2024

Set parameter LogFile to value "gurobi.log"

Gurobi 10.0.0 (win64, gurobi_cl) logging started Mon Jan 13 11:24:59 2025

Set parameter LogFile to value "gurobi.log"
